LPFile/20_2_nonvalidly/20_2_nonvalidly_0.lp
Minimize
   z: 148 quantity_e_0_0 + 159 quantity_e_1_0 + 141 quantity_e_2_0 + 217 quantity_e_3_0 + 312 quantity_e_4_0 + 284 quantity_e_5_0 + 274 quantity_e_6_0 + 187 quantity_e_7_0 + 263 quantity_e_8_0 + 130 quantity_e_9_0 + 154 quantity_e_10_0 + 59 quantity_e_11_0 + 82 quantity_e_12_0 + 93 quantity_e_13_0 + 87 quantity_e_14_0 + 88 quantity_e_15_0 + 159 quantity_e_16_0 + 157 quantity_e_17_0 + 308 quantity_e_18_0 + 298 quantity_e_19_0 + 107 quantity_e_20_0 + 5 quantity_e_21_0 + 163 quantity_e_22_0 + 144 quantity_e_23_0 + 175 quantity_e_24_0 + 82 quantity_e_25_0 + 145 quantity_e_26_0 + 26 quantity_e_27_0 + 172 quantity_e_28_0 + 48 quantity_e_29_0 + 136 quantity_e_30_0 + 119 quantity_e_31_0 + 198 quantity_e_32_0 + 272 quantity_e_33_0 + 6 quantity_e_34_0 + 55 quantity_e_35_0 + 106 quantity_e_36_0 + 127 quantity_e_37_0 + 242 quantity_e_38_0 + 158 quantity_e_39_0 + 194 quantity_e_40_0 + 169 quantity_e_41_0 + 59 quantity_e_42_0 + 3 quantity_e_43_0 + 131 quantity_e_44_0 + 174 quantity_e_45_0 + 96 quantity_e_46_0 + 169 quantity_e_47_0 + 57 quantity_e_48_0 + 195 quantity_e_49_0 + 118 quantity_e_50_0 + 185 quantity_e_51_0 + 199 quantity_e_52_0 + 130 quantity_e_53_0 + 97 quantity_e_54_0 + 37 quantity_e_55_0 + 158 quantity_e_56_0 + 137 quantity_e_57_0 + 227 quantity_e_58_0 + 195 quantity_e_59_0 + 42 quantity_e_60_0
Subject to
   contraite_3_0: quantity_e_11_0 + quantity_e_13_0 - quantity_e_10_0 - quantity_e_12_0 = 923
   contraite_5_0: quantity_e_12_0 + quantity_e_23_0 - quantity_e_13_0 - quantity_e_22_0 = 410
   contraite_8_0: quantity_e_33_0 - quantity_e_32_0 = 192
   contraite_19_0: quantity_e_6_0 + quantity_e_10_0 + quantity_e_42_0 + quantity_e_54_0 + quantity_e_58_0 - quantity_e_7_0 - quantity_e_11_0 - quantity_e_43_0 - quantity_e_55_0 - quantity_e_59_0 = 743
   contraite_10_0: quantity_e_34_0 + quantity_e_43_0 + quantity_e_45_0 - quantity_e_35_0 - quantity_e_42_0 - quantity_e_44_0 = 1313
   contraite_11_0: quantity_e_17_0 - quantity_e_16_0 <= 455
   contraite_18_0: quantity_e_21_0 + quantity_e_31_0 - quantity_e_20_0 - quantity_e_30_0 <= 1842
   contraite_6_0: quantity_e_15_0 + quantity_e_24_0 + quantity_e_26_0 - quantity_e_14_0 - quantity_e_25_0 - quantity_e_27_0 <= 449
   contraite_4_0: quantity_e_1_0 + quantity_e_14_0 + quantity_e_16_0 + quantity_e_18_0 + quantity_e_20_0 - quantity_e_0_0 - quantity_e_15_0 - quantity_e_17_0 - quantity_e_19_0 - quantity_e_21_0 <= 837
   contraite_0_0: quantity_e_1_0 + quantity_e_3_0 - quantity_e_0_0 - quantity_e_2_0 = 0
   contraite_1_0: quantity_e_5_0 + quantity_e_7_0 - quantity_e_4_0 - quantity_e_6_0 = 0
   contraite_2_0: quantity_e_9_0 - quantity_e_8_0 = 0
   contraite_7_0: quantity_e_4_0 + quantity_e_24_0 + quantity_e_29_0 + quantity_e_31_0 - quantity_e_5_0 - quantity_e_25_0 - quantity_e_28_0 - quantity_e_30_0 = 0
   contraite_9_0: quantity_e_35_0 + quantity_e_37_0 + quantity_e_39_0 + quantity_e_41_0 - quantity_e_34_0 - quantity_e_36_0 - quantity_e_38_0 - quantity_e_40_0 = 0
   contraite_12_0: quantity_e_2_0 + quantity_e_40_0 + quantity_e_47_0 + quantity_e_49_0 - quantity_e_3_0 - quantity_e_41_0 - quantity_e_46_0 - quantity_e_48_0 = 0
   contraite_13_0: quantity_e_8_0 + quantity_e_28_0 + quantity_e_38_0 + quantity_e_51_0 - quantity_e_9_0 - quantity_e_29_0 - quantity_e_39_0 - quantity_e_50_0 = 0
   contraite_14_0: quantity_e_36_0 + quantity_e_46_0 + quantity_e_53_0 + quantity_e_55_0 + quantity_e_57_0 - quantity_e_37_0 - quantity_e_47_0 - quantity_e_52_0 - quantity_e_54_0 - quantity_e_56_0 = 0
   contraite_15_0: quantity_e_18_0 + quantity_e_22_0 + quantity_e_32_0 + quantity_e_48_0 + quantity_e_59_0 - quantity_e_19_0 - quantity_e_23_0 - quantity_e_33_0 - quantity_e_49_0 - quantity_e_58_0 = 0
   contraite_16_0: quantity_e_56_0 - quantity_e_57_0 = 0
   contraite_17_0: quantity_e_26_0 + quantity_e_44_0 + quantity_e_50_0 + quantity_e_52_0 - quantity_e_27_0 - quantity_e_45_0 - quantity_e_51_0 - quantity_e_53_0 = 0
Bounds
   quantity_e_0_0 >= 0
   quantity_e_1_0 >= 0
   quantity_e_2_0 >= 0
   quantity_e_3_0 >= 0
   quantity_e_4_0 >= 0
   quantity_e_5_0 >= 0
   quantity_e_6_0 >= 0
   quantity_e_7_0 >= 0
   quantity_e_8_0 >= 0
   quantity_e_9_0 >= 0
   quantity_e_10_0 >= 0
   quantity_e_11_0 >= 0
   quantity_e_12_0 >= 0
   quantity_e_13_0 >= 0
   quantity_e_14_0 >= 0
   quantity_e_15_0 >= 0
   quantity_e_16_0 >= 0
   quantity_e_17_0 >= 0
   quantity_e_18_0 >= 0
   quantity_e_19_0 >= 0
   quantity_e_20_0 >= 0
   quantity_e_21_0 >= 0
   quantity_e_22_0 >= 0
   quantity_e_23_0 >= 0
   quantity_e_24_0 >= 0
   quantity_e_25_0 >= 0
   quantity_e_26_0 >= 0
   quantity_e_27_0 >= 0
   quantity_e_28_0 >= 0
   quantity_e_29_0 >= 0
   quantity_e_30_0 >= 0
   quantity_e_31_0 >= 0
   quantity_e_32_0 >= 0
   quantity_e_33_0 >= 0
   quantity_e_34_0 >= 0
   quantity_e_35_0 >= 0
   quantity_e_36_0 >= 0
   quantity_e_37_0 >= 0
   quantity_e_38_0 >= 0
   quantity_e_39_0 >= 0
   quantity_e_40_0 >= 0
   quantity_e_41_0 >= 0
   quantity_e_42_0 >= 0
   quantity_e_43_0 >= 0
   quantity_e_44_0 >= 0
   quantity_e_45_0 >= 0
   quantity_e_46_0 >= 0
   quantity_e_47_0 >= 0
   quantity_e_48_0 >= 0
   quantity_e_49_0 >= 0
   quantity_e_50_0 >= 0
   quantity_e_51_0 >= 0
   quantity_e_52_0 >= 0
   quantity_e_53_0 >= 0
   quantity_e_54_0 >= 0
   quantity_e_55_0 >= 0
   quantity_e_56_0 >= 0
   quantity_e_57_0 >= 0
   quantity_e_58_0 >= 0
   quantity_e_59_0 >= 0
   quantity_e_60_0 >= 0
Integer
   quantity_e_0_0
   quantity_e_1_0
   quantity_e_2_0
   quantity_e_3_0
   quantity_e_4_0
   quantity_e_5_0
   quantity_e_6_0
   quantity_e_7_0
   quantity_e_8_0
   quantity_e_9_0
   quantity_e_10_0
   quantity_e_11_0
   quantity_e_12_0
   quantity_e_13_0
   quantity_e_14_0
   quantity_e_15_0
   quantity_e_16_0
   quantity_e_17_0
   quantity_e_18_0
   quantity_e_19_0
   quantity_e_20_0
   quantity_e_21_0
   quantity_e_22_0
   quantity_e_23_0
   quantity_e_24_0
   quantity_e_25_0
   quantity_e_26_0
   quantity_e_27_0
   quantity_e_28_0
   quantity_e_29_0
   quantity_e_30_0
   quantity_e_31_0
   quantity_e_32_0
   quantity_e_33_0
   quantity_e_34_0
   quantity_e_35_0
   quantity_e_36_0
   quantity_e_37_0
   quantity_e_38_0
   quantity_e_39_0
   quantity_e_40_0
   quantity_e_41_0
   quantity_e_42_0
   quantity_e_43_0
   quantity_e_44_0
   quantity_e_45_0
   quantity_e_46_0
   quantity_e_47_0
   quantity_e_48_0
   quantity_e_49_0
   quantity_e_50_0
   quantity_e_51_0
   quantity_e_52_0
   quantity_e_53_0
   quantity_e_54_0
   quantity_e_55_0
   quantity_e_56_0
   quantity_e_57_0
   quantity_e_58_0
   quantity_e_59_0
   quantity_e_60_0
End